rcpsp/heur_output_or_constraints/Log=10/heurj120.txt
encoding rcpsp/j120.sm/j12031_9.sm nv: 2612586 nc: 5522196 enctime: 69.52
encoding rcpsp/j120.sm/j12031_9.sm nv: 830748 nc: 1752429 enctime: 13.58
c File: j12031_9.smnaiveor10.wcnf
c timeout
c final solution cost: 250
c CPU time: 70.862008
s UNKNOWN

c File: j12031_9.smor10.wcnf
c timeout
c CPU time: 61.574497
s UNKNOWN


rcpsp/heur_output_or_constraints/Log=10/heurj120.txt
encoding rcpsp/j120.sm/j1203_1.sm nv: 852162 nc: 1961237 enctime: 34.05
encoding rcpsp/j120.sm/j1203_1.sm nv: 114664 nc: 259841 enctime: 2.84
c File: j1203_1.smnaiveor10.wcnf
c optimal
c final solution cost: 79
c CPU time: 16.722177
s OPTIMUM FOUND

c File: j1203_1.smor10.wcnf
c optimal
c final solution cost: 79
c CPU time: 0.592442
s OPTIMUM FOUND


rcpsp/heur_output_or_constraints/Log=10/heurj120.txt
encoding rcpsp/j120.sm/j12032_10.sm nv: 3607625 nc: 7489563 enctime: 84.08
encoding rcpsp/j120.sm/j12032_10.sm nv: 786625 nc: 1629163 enctime: 10.31
c File: j12032_10.smnaiveor10.wcnf
c timeout
c final solution cost: 145
c CPU time: 70.867347
s UNKNOWN

c File: j12032_10.smor10.wcnf
c timeout
c CPU time: 61.165817
s UNKNOWN


rcpsp/heur_output_or_constraints/Log=10/heurj120.txt
encoding rcpsp/j120.sm/j12032_1.sm nv: 3716165 nc: 7742567 enctime: 82.60
encoding rcpsp/j120.sm/j12032_1.sm nv: 882255 nc: 1834127 enctime: 13.68
c File: j12032_1.smnaiveor10.wcnf
c timeout
c final solution cost: 157
c CPU time: 71.679919
s UNKNOWN

c File: j12032_1.smor10.wcnf
c timeout
c CPU time: 61.458535
s UNKNOWN


rcpsp/heur_output_or_constraints/Log=10/heurj120.txt
encoding rcpsp/j120.sm/j12032_2.sm nv: 3435665 nc: 7155734 enctime: 81.10
encoding rcpsp/j120.sm/j12032_2.sm nv: 775960 nc: 1612294 enctime: 10.21
c File: j12032_2.smnaiveor10.wcnf
c timeout
c final solution cost: 153
c CPU time: 71.756233
s UNKNOWN

c File: j12032_2.smor10.wcnf
c timeout
c CPU time: 61.286242
s UNKNOWN


rcpsp/heur_output_or_constraints/Log=10/heurj120.txt
encoding rcpsp/j120.sm/j12032_3.sm nv: 3721512 nc: 7750205 enctime: 88.66
encoding rcpsp/j120.sm/j12032_3.sm nv: 876908 nc: 1822129 enctime: 11.90
c File: j12032_3.smnaiveor10.wcnf
c timeout
c final solution cost: 161
c CPU time: 72.016612
s UNKNOWN

c File: j12032_3.smor10.wcnf
c timeout
c final solution cost: 158
c CPU time: 61.642624
s UNKNOWN


rcpsp/heur_output_or_constraints/Log=10/heurj120.txt
encoding rcpsp/j120.sm/j12032_4.sm nv: 3128103 nc: 6491740 enctime: 66.91
encoding rcpsp/j120.sm/j12032_4.sm nv: 783273 nc: 1622070 enctime: 11.52
c File: j12032_4.smnaiveor10.wcnf
c timeout
c final solution cost: 151
c CPU time: 69.512936
s UNKNOWN

c File: j12032_4.smor10.wcnf
c timeout
c final solution cost: 147
c CPU time: 61.411754
s UNKNOWN


rcpsp/heur_output_or_constraints/Log=10/heurj120.txt
encoding rcpsp/j120.sm/j12032_5.sm nv: 3326634 nc: 6898494 enctime: 70.79
encoding rcpsp/j120.sm/j12032_5.sm nv: 822548 nc: 1702251 enctime: 10.67
c File: j12032_5.smnaiveor10.wcnf
c timeout
c final solution cost: 402
c CPU time: 70.576760
s UNKNOWN

c File: j12032_5.smor10.wcnf
c timeout
c CPU time: 61.267422
s UNKNOWN


rcpsp/heur_output_or_constraints/Log=10/heurj120.txt
encoding rcpsp/j120.sm/j12032_6.sm nv: 3621856 nc: 7496523 enctime: 80.86
encoding rcpsp/j120.sm/j12032_6.sm nv: 826728 nc: 1707467 enctime: 11.00
c File: j12032_6.smnaiveor10.wcnf
c timeout
c final solution cost: 143
c CPU time: 71.356425
s UNKNOWN

c File: j12032_6.smor10.wcnf
c timeout
c final solution cost: 138
c CPU time: 61.574586
s UNKNOWN


rcpsp/heur_output_or_constraints/Log=10/heurj120.txt
encoding rcpsp/j120.sm/j12032_7.sm nv: 4179032 nc: 8632664 enctime: 92.57
encoding rcpsp/j120.sm/j12032_7.sm nv: 840752 nc: 1732544 enctime: 11.35
c File: j12032_7.smnaiveor10.wcnf
c timeout
c final solution cost: 132
c CPU time: 72.479924
s UNKNOWN

c File: j12032_7.smor10.wcnf
c timeout
c final solution cost: 127
c CPU time: 61.535132
s UNKNOWN


rcpsp/heur_output_or_constraints/Log=10/heurj120.txt
encoding rcpsp/j120.sm/j12032_8.sm nv: 3223488 nc: 6673158 enctime: 73.72
encoding rcpsp/j120.sm/j12032_8.sm nv: 798048 nc: 1648833 enctime: 10.59
c File: j12032_8.smnaiveor10.wcnf
c timeout
c final solution cost: 209
c CPU time: 70.460021
s UNKNOWN

c File: j12032_8.smor10.wcnf
c timeout
c CPU time: 61.231101
s UNKNOWN


rcpsp/heur_output_or_constraints/Log=10/heurj120.txt
encoding rcpsp/j120.sm/j12032_9.sm nv: 3716988 nc: 7672343 enctime: 75.71
encoding rcpsp/j120.sm/j12032_9.sm nv: 838944 nc: 1728041 enctime: 10.64
c File: j12032_9.smnaiveor10.wcnf
c timeout
c final solution cost: 134
c CPU time: 70.304459
s UNKNOWN

c File: j12032_9.smor10.wcnf
c timeout
c final solution cost: 131
c CPU time: 61.429186
s UNKNOWN


rcpsp/heur_output_or_constraints/Log=10/heurj120.txt
encoding rcpsp/j120.sm/j1203_2.sm nv: 786208 nc: 1807581 enctime: 30.46
encoding rcpsp/j120.sm/j1203_2.sm nv: 113204 nc: 256534 enctime: 1.25
c File: j1203_2.smnaiveor10.wcnf
c optimal
c final solution cost: 82
c CPU time: 6.523046
s OPTIMUM FOUND

c File: j1203_2.smor10.wcnf
c optimal
c final solution cost: 82
c CPU time: 0.323567
s OPTIMUM FOUND


rcpsp/heur_output_or_constraints/Log=10/heurj120.txt
encoding rcpsp/j120.sm/j12033_10.sm nv: 4660095 nc: 9581487 enctime: 91.88
encoding rcpsp/j120.sm/j12033_10.sm nv: 812565 nc: 1666489 enctime: 10.65
c File: j12033_10.smnaiveor10.wcnf
c timeout
c final solution cost: 112
c CPU time: 72.676349
s UNKNOWN

c File: j12033_10.smor10.wcnf
c timeout
c final solution cost: 114
c CPU time: 61.334183
s UNKNOWN


rcpsp/heur_output_or_constraints/Log=10/heurj120.txt
encoding rcpsp/j120.sm/j12033_1.sm nv: 4371620 nc: 8975688 enctime: 83.72
encoding rcpsp/j120.sm/j12033_1.sm nv: 811580 nc: 1662468 enctime: 10.35
c File: j12033_1.smnaiveor10.wcnf
c timeout
c final solution cost: 108
c CPU time: 71.340495
s UNKNOWN

c File: j12033_1.smor10.wcnf
c timeout
c final solution cost: 118
c CPU time: 61.283848
s UNKNOWN


rcpsp/heur_output_or_constraints/Log=10/heurj120.txt
encoding rcpsp/j120.sm/j12033_2.sm nv: 4191840 nc: 8637406 enctime: 83.31
encoding rcpsp/j120.sm/j12033_2.sm nv: 798750 nc: 1642012 enctime: 10.26
c File: j12033_2.smnaiveor10.wcnf
c timeout
c final solution cost: 120
c CPU time: 71.279301
s UNKNOWN

c File: j12033_2.smor10.wcnf
c timeout
c final solution cost: 121
c CPU time: 61.305615
s UNKNOWN


rcpsp/heur_output_or_constraints/Log=10/heurj120.txt
encoding rcpsp/j120.sm/j12033_3.sm nv: 4016850 nc: 8237869 enctime: 76.46
encoding rcpsp/j120.sm/j12033_3.sm nv: 796785 nc: 1630501 enctime: 10.06
c File: j12033_3.smnaiveor10.wcnf
c timeout
c final solution cost: 114
c CPU time: 70.541490
s UNKNOWN

c File: j12033_3.smor10.wcnf
c timeout
c final solution cost: 112
c CPU time: 61.288539
s UNKNOWN


rcpsp/heur_output_or_constraints/Log=10/heurj120.txt
encoding rcpsp/j120.sm/j12033_4.sm nv: 4169877 nc: 8604918 enctime: 83.70
encoding rcpsp/j120.sm/j12033_4.sm nv: 785358 nc: 1616508 enctime: 10.11
c File: j12033_4.smnaiveor10.wcnf
c timeout
c final solution cost: 120
c CPU time: 71.601526
s UNKNOWN

c File: j12033_4.smor10.wcnf
c timeout
c final solution cost: 124
c CPU time: 61.331482
s UNKNOWN


rcpsp/heur_output_or_constraints/Log=10/heurj120.txt
encoding rcpsp/j120.sm/j12033_5.sm nv: 3329200 nc: 6923229 enctime: 72.48
encoding rcpsp/j120.sm/j12033_5.sm nv: 801850 nc: 1663851 enctime: 10.46
c File: j12033_5.smnaiveor10.wcnf
c timeout
c final solution cost: 154
c CPU time: 70.280485
s UNKNOWN

c File: j12033_5.smor10.wcnf
c timeout
c CPU time: 61.230644
s UNKNOWN


rcpsp/heur_output_or_constraints/Log=10/heurj120.txt
encoding rcpsp/j120.sm/j12033_6.sm nv: 3984735 nc: 8200346 enctime: 80.12
encoding rcpsp/j120.sm/j12033_6.sm nv: 830940 nc: 1706384 enctime: 10.70
c File: j12033_6.smnaiveor10.wcnf
c timeout
c final solution cost: 121
c CPU time: 70.576470
s UNKNOWN

c File: j12033_6.smor10.wcnf
c timeout
c final solution cost: 120
c CPU time: 61.336558
s UNKNOWN


rcpsp/heur_output_or_constraints/Log=10/heurj120.txt
encoding rcpsp/j120.sm/j12033_7.sm nv: 4266147 nc: 8799792 enctime: 87.55
encoding rcpsp/j120.sm/j12033_7.sm nv: 887460 nc: 1826553 enctime: 11.42
c File: j12033_7.smnaiveor10.wcnf
c timeout
c final solution cost: 130
c CPU time: 71.899331
s UNKNOWN

c File: j12033_7.smor10.wcnf
c timeout
c final solution cost: 126
c CPU time: 61.460678
s UNKNOWN


rcpsp/heur_output_or_constraints/Log=10/heurj120.txt
encoding rcpsp/j120.sm/j12033_8.sm nv: 4402568 nc: 9074215 enctime: 89.76
encoding rcpsp/j120.sm/j12033_8.sm nv: 829564 nc: 1705578 enctime: 10.80
c File: j12033_8.smnaiveor10.wcnf
c timeout
c final solution cost: 127
c CPU time: 72.096982
s UNKNOWN

c File: j12033_8.smor10.wcnf
c timeout
c final solution cost: 122
c CPU time: 61.370403
s UNKNOWN


rcpsp/heur_output_or_constraints/Log=10/heurj120.txt
encoding rcpsp/j120.sm/j12033_9.sm nv: 3992976 nc: 8204789 enctime: 77.80
encoding rcpsp/j120.sm/j12033_9.sm nv: 799875 nc: 1639945 enctime: 10.10
c File: j12033_9.smnaiveor10.wcnf
c timeout
c final solution cost: 120
c CPU time: 70.341190
s UNKNOWN

c File: j12033_9.smor10.wcnf
c timeout
c CPU time: 61.091728
s UNKNOWN


rcpsp/heur_output_or_constraints/Log=10/heurj120.txt
encoding rcpsp/j120.sm/j1203_3.sm nv: 900163 nc: 2049314 enctime: 32.68
encoding rcpsp/j120.sm/j1203_3.sm nv: 148409 nc: 333884 enctime: 2.54
c File: j1203_3.smnaiveor10.wcnf
c optimal
c final solution cost: 97
c CPU time: 10.532775
s OPTIMUM FOUND

c File: j1203_3.smor10.wcnf
c optimal
c final solution cost: 97
c CPU time: 0.465910
s OPTIMUM FOUND


rcpsp/heur_output_or_constraints/Log=10/heurj120.txt
encoding rcpsp/j120.sm/j12034_10.sm nv: 5868336 nc: 11986244 enctime: 107.58
encoding rcpsp/j120.sm/j12034_10.sm nv: 876384 nc: 1785627 enctime: 11.56
c File: j12034_10.smnaiveor10.wcnf
c timeout
c final solution cost: 94
c CPU time: 74.239937
s UNKNOWN

c File: j12034_10.smor10.wcnf
c timeout
c final solution cost: 96
c CPU time: 61.340803
s UNKNOWN


rcpsp/heur_output_or_constraints/Log=10/heurj120.txt
encoding rcpsp/j120.sm/j12034_1.sm nv: 5554800 nc: 11274066 enctime: 96.19
encoding rcpsp/j120.sm/j12034_1.sm nv: 777672 nc: 1574814 enctime: 10.09
c File: j12034_1.smnaiveor10.wcnf
c timeout
c final solution cost: 76
c CPU time: 72.127207
s UNKNOWN

c File: j12034_1.smor10.wcnf
c timeout
c final solution cost: 76
c CPU time: 61.135858
s UNKNOWN


rcpsp/heur_output_or_constraints/Log=10/heurj120.txt
encoding rcpsp/j120.sm/j12034_2.sm nv: 5457974 nc: 11172784 enctime: 101.92
encoding rcpsp/j120.sm/j12034_2.sm nv: 935192 nc: 1910113 enctime: 12.09
c File: j12034_2.smnaiveor10.wcnf
c timeout
c final solution cost: 100
c CPU time: 73.097730
s UNKNOWN

c File: j12034_2.smor10.wcnf
c timeout
c final solution cost: 100
c CPU time: 61.417982
s UNKNOWN


rcpsp/heur_output_or_constraints/Log=10/heurj120.txt
encoding rcpsp/j120.sm/j12034_3.sm nv: 6331446 nc: 12963588 enctime: 115.89
encoding rcpsp/j120.sm/j12034_3.sm nv: 950589 nc: 1941500 enctime: 12.32
c File: j12034_3.smnaiveor10.wcnf
c timeout
c final solution cost: 142
c CPU time: 75.908840
s UNKNOWN

c File: j12034_3.smor10.wcnf
c timeout
c final solution cost: 100
c CPU time: 61.459870
s UNKNOWN


rcpsp/heur_output_or_constraints/Log=10/heurj120.txt
encoding rcpsp/j120.sm/j12034_4.sm nv: 6444480 nc: 13138374 enctime: 118.97
encoding rcpsp/j120.sm/j12034_4.sm nv: 987840 nc: 2009334 enctime: 10.35
c File: j12034_4.smnaiveor10.wcnf
c optimal
c final solution cost: 91
c CPU time: 46.887030
s OPTIMUM FOUND

c File: j12034_4.smor10.wcnf
c optimal
c final solution cost: 91
c CPU time: 9.615320
s OPTIMUM FOUND


rcpsp/heur_output_or_constraints/Log=10/heurj120.txt
encoding rcpsp/j120.sm/j12034_5.sm nv: 5004125 nc: 10252608 enctime: 96.65
encoding rcpsp/j120.sm/j12034_5.sm nv: 827750 nc: 1691733 enctime: 13.23
c File: j12034_5.smnaiveor10.wcnf
c timeout
c CPU time: 71.873935
s UNKNOWN

c File: j12034_5.smor10.wcnf
c timeout
c CPU time: 61.242561
s UNKNOWN


rcpsp/heur_output_or_constraints/Log=10/heurj120.txt
encoding rcpsp/j120.sm/j12034_6.sm nv: 6775555 nc: 13804881 enctime: 133.06
encoding rcpsp/j120.sm/j12034_6.sm nv: 1033394 nc: 2100862 enctime: 16.12
c File: j12034_6.smnaiveor10.wcnf
c optimal
c final solution cost: 100
c CPU time: 52.440558
s OPTIMUM FOUND

c File: j12034_6.smor10.wcnf
c optimal
c final solution cost: 100
c CPU time: 8.436485
s OPTIMUM FOUND


rcpsp/heur_output_or_constraints/Log=10/heurj120.txt
encoding rcpsp/j120.sm/j12034_7.sm nv: 5362000 nc: 11006980 enctime: 111.00
encoding rcpsp/j120.sm/j12034_7.sm nv: 857920 nc: 1756564 enctime: 12.56
c File: j12034_7.smnaiveor10.wcnf
c timeout
c final solution cost: 102
c CPU time: 74.225668
s UNKNOWN

c File: j12034_7.smor10.wcnf
c timeout
c final solution cost: 100
c CPU time: 61.372782
s UNKNOWN


rcpsp/heur_output_or_constraints/Log=10/heurj120.txt
encoding rcpsp/j120.sm/j12034_8.sm nv: 5873280 nc: 11978335 enctime: 113.06
encoding rcpsp/j120.sm/j12034_8.sm nv: 865536 nc: 1760995 enctime: 11.24
c File: j12034_8.smnaiveor10.wcnf
c timeout
c final solution cost: 90
c CPU time: 74.228337
s UNKNOWN

c File: j12034_8.smor10.wcnf
c timeout
c final solution cost: 88
c CPU time: 61.340668
s UNKNOWN


rcpsp/heur_output_or_constraints/Log=10/heurj120.txt
encoding rcpsp/j120.sm/j12034_9.sm nv: 4428312 nc: 9046291 enctime: 86.75
encoding rcpsp/j120.sm/j12034_9.sm nv: 757668 nc: 1544325 enctime: 10.31
c File: j12034_9.smnaiveor10.wcnf
c timeout
c final solution cost: 99
c CPU time: 71.202027
s UNKNOWN

c File: j12034_9.smor10.wcnf
c timeout
c final solution cost: 98
c CPU time: 61.343050
s UNKNOWN


rcpsp/heur_output_or_constraints/Log=10/heurj120.txt
encoding rcpsp/j120.sm/j1203_4.sm nv: 933296 nc: 2103659 enctime: 34.28
encoding rcpsp/j120.sm/j1203_4.sm nv: 110656 nc: 245374 enctime: 1.97
c File: j1203_4.smnaiveor10.wcnf
c optimal
c final solution cost: 66
c CPU time: 16.514218
s OPTIMUM FOUND

c File: j1203_4.smor10.wcnf
c optimal
c final solution cost: 66
c CPU time: 0.417204
s OPTIMUM FOUND


rcpsp/heur_output_or_constraints/Log=10/heurj120.txt
encoding rcpsp/j120.sm/j12035_10.sm nv: 7126805 nc: 14464039 enctime: 130.83
encoding rcpsp/j120.sm/j12035_10.sm nv: 921662 nc: 1866157 enctime: 13.16
c File: j12035_10.smnaiveor10.wcnf
c optimal
c final solution cost: 84
c CPU time: 28.691112
s OPTIMUM FOUND

c File: j12035_10.smor10.wcnf
c optimal
c final solution cost: 84
c CPU time: 2.720657
s OPTIMUM FOUND


rcpsp/heur_output_or_constraints/Log=10/heurj120.txt
encoding rcpsp/j120.sm/j12035_1.sm nv: 6662910 nc: 13489939 enctime: 117.30
encoding rcpsp/j120.sm/j12035_1.sm nv: 845052 nc: 1707085 enctime: 13.13
c File: j12035_1.smnaiveor10.wcnf
c timeout
c final solution cost: 129
c CPU time: 74.246782
s UNKNOWN

c File: j12035_1.smor10.wcnf
c optimal
c final solution cost: 73
c CPU time: 6.113065
s OPTIMUM FOUND


rcpsp/heur_output_or_constraints/Log=10/heurj120.txt
encoding rcpsp/j120.sm/j12035_2.sm nv: 5567962 nc: 11411740 enctime: 115.14
encoding rcpsp/j120.sm/j12035_2.sm nv: 922645 nc: 1886611 enctime: 12.81
c File: j12035_2.smnaiveor10.wcnf
c timeout
c final solution cost: 152
c CPU time: 75.097482
s UNKNOWN

c File: j12035_2.smor10.wcnf
c timeout
c final solution cost: 107
c CPU time: 61.504499
s UNKNOWN


rcpsp/heur_output_or_constraints/Log=10/heurj120.txt
encoding rcpsp/j120.sm/j12035_3.sm nv: 6630192 nc: 13465441 enctime: 126.10
encoding rcpsp/j120.sm/j12035_3.sm nv: 808560 nc: 1637857 enctime: 12.88
c File: j12035_3.smnaiveor10.wcnf
c timeout
c final solution cost: 76
c CPU time: 74.527346
s UNKNOWN

c File: j12035_3.smor10.wcnf
c timeout
c final solution cost: 77
c CPU time: 61.186898
s UNKNOWN


rcpsp/heur_output_or_constraints/Log=10/heurj120.txt
encoding rcpsp/j120.sm/j12035_4.sm nv: 5305976 nc: 10839136 enctime: 102.34
encoding rcpsp/j120.sm/j12035_4.sm nv: 895180 nc: 1824592 enctime: 12.02
c File: j12035_4.smnaiveor10.wcnf
c timeout
c final solution cost: 96
c CPU time: 73.657525
s UNKNOWN

c File: j12035_4.smor10.wcnf
c optimal
c final solution cost: 96
c CPU time: 16.635125
s OPTIMUM FOUND


